p cnf 362 643
1 -2 0
1 -3 0
2 3 -1 0
4 -1 0
1 -4 0
5 -6 0
5 -7 0
6 7 -5 0
3 -5 0
-3 5 0
8 -9 0
8 -10 0
9 10 -8 0
7 -8 0
-7 8 0
11 -12 0
11 -13 0
12 13 -11 0
10 -11 0
-10 11 0
14 -15 0
14 -16 0
15 16 -14 0
13 -14 0
-13 14 0
17 -18 0
17 -19 0
18 19 -17 0
16 -17 0
-16 17 0
20 -21 0
20 -22 0
21 22 -20 0
19 -20 0
-19 20 0
23 -24 0
23 -25 0
24 25 -23 0
22 -23 0
-22 23 0
26 -27 0
26 -28 0
27 28 -26 0
25 -26 0
-25 26 0
29 -30 0
29 -31 0
30 31 -29 0
28 -29 0
-28 29 0
32 -33 0
32 -34 0
33 34 -32 0
31 -32 0
-31 32 0
35 -36 0
35 -37 0
36 37 -35 0
34 -35 0
-34 35 0
38 -39 0
38 -40 0
39 40 -38 0
37 -38 0
-37 38 0
-21 41 0
-24 41 0
-27 41 0
-30 41 0
-33 41 0
-36 41 0
-39 41 0
41 -42 0
43 0
40 -41 0
-40 41 0
44 -45 0
44 -46 0
45 46 -44 0
47 -44 0
44 -47 0
48 -49 0
48 -50 0
49 50 -48 0
46 -48 0
-46 48 0
51 -52 0
51 -53 0
52 53 -51 0
50 -51 0
-50 51 0
54 -55 0
54 -56 0
55 56 -54 0
53 -54 0
-53 54 0
57 -58 0
57 -59 0
58 59 -57 0
56 -57 0
-56 57 0
60 -61 0
60 -62 0
61 62 -60 0
59 -60 0
-59 60 0
63 -64 0
63 -65 0
64 65 -63 0
62 -63 0
-62 63 0
66 -67 0
66 -68 0
67 68 -66 0
65 -66 0
-65 66 0
69 -70 0
69 -71 0
70 71 -69 0
68 -69 0
-68 69 0
-58 72 0
-61 72 0
-64 72 0
-67 72 0
-70 72 0
72 -73 0
74 0
71 -72 0
-71 72 0
75 -76 0
75 -77 0
76 77 -75 0
78 -75 0
75 -78 0
79 -80 0
79 -81 0
80 81 -79 0
77 -79 0
-77 79 0
82 -83 0
82 -84 0
83 84 -82 0
81 -82 0
-81 82 0
85 -86 0
85 -87 0
86 87 -85 0
84 -85 0
-84 85 0
88 -89 0
88 -90 0
89 90 -88 0
87 -88 0
-87 88 0
91 -92 0
91 -93 0
92 93 -91 0
90 -91 0
-90 91 0
94 -95 0
94 -96 0
95 96 -94 0
93 -94 0
-93 94 0
97 -98 0
97 -99 0
98 99 -97 0
96 -97 0
-96 97 0
100 -101 0
100 -102 0
101 102 -100 0
99 -100 0
-99 100 0
103 -104 0
103 -105 0
104 105 -103 0
102 -103 0
-102 103 0
106 -107 0
106 -108 0
107 108 -106 0
105 -106 0
-105 106 0
-89 109 0
-92 109 0
-95 109 0
-98 109 0
-101 109 0
-104 109 0
-107 109 0
109 -110 0
111 0
108 -109 0
-108 109 0
112 -113 0
112 -114 0
113 114 -112 0
115 -112 0
112 -115 0
116 -117 0
116 -118 0
117 118 -116 0
114 -116 0
-114 116 0
119 -120 0
119 -121 0
120 121 -119 0
118 -119 0
-118 119 0
122 -123 0
122 -124 0
123 124 -122 0
121 -122 0
-121 122 0
125 -126 0
125 -127 0
126 127 -125 0
124 -125 0
-124 125 0
128 -129 0
128 -130 0
129 130 -128 0
127 -128 0
-127 128 0
131 -132 0
131 -133 0
132 133 -131 0
130 -131 0
-130 131 0
134 -135 0
134 -136 0
135 136 -134 0
133 -134 0
-133 134 0
137 -138 0
137 -139 0
138 139 -137 0
136 -137 0
-136 137 0
140 -141 0
140 -142 0
141 142 -140 0
139 -140 0
-139 140 0
143 -144 0
143 -145 0
144 145 -143 0
142 -143 0
-142 143 0
146 -147 0
146 -148 0
147 148 -146 0
145 -146 0
-145 146 0
149 -150 0
149 -151 0
150 151 -149 0
148 -149 0
-148 149 0
-135 152 0
-138 152 0
-141 152 0
-144 152 0
-147 152 0
-150 152 0
152 -153 0
154 0
151 -152 0
-151 152 0
155 -156 0
155 -157 0
156 157 -155 0
158 -155 0
155 -158 0
159 -160 0
159 -161 0
160 161 -159 0
157 -159 0
-157 159 0
162 -163 0
162 -164 0
163 164 -162 0
161 -162 0
-161 162 0
165 -166 0
165 -167 0
166 167 -165 0
164 -165 0
-164 165 0
168 -169 0
168 -170 0
169 170 -168 0
167 -168 0
-167 168 0
171 -172 0
171 -173 0
172 173 -171 0
170 -171 0
-170 171 0
174 -175 0
174 -176 0
175 176 -174 0
173 -174 0
-173 174 0
177 -178 0
177 -179 0
178 179 -177 0
176 -177 0
-176 177 0
180 -181 0
180 -182 0
181 182 -180 0
179 -180 0
-179 180 0
183 -184 0
183 -185 0
184 185 -183 0
182 -183 0
-182 183 0
-169 186 0
-172 186 0
-175 186 0
-178 186 0
-181 186 0
-184 186 0
186 -187 0
188 0
185 -186 0
-185 186 0
189 -190 0
189 -191 0
190 191 -189 0
192 -189 0
189 -192 0
193 -194 0
193 -195 0
194 195 -193 0
191 -193 0
-191 193 0
196 -197 0
196 -198 0
197 198 -196 0
195 -196 0
-195 196 0
199 -200 0
199 -201 0
200 201 -199 0
198 -199 0
-198 199 0
202 -203 0
202 -204 0
203 204 -202 0
201 -202 0
-201 202 0
205 -206 0
205 -207 0
206 207 -205 0
204 -205 0
-204 205 0
208 -209 0
208 -210 0
209 210 -208 0
207 -208 0
-207 208 0
211 -212 0
211 -213 0
212 213 -211 0
210 -211 0
-210 211 0
214 -215 0
214 -216 0
215 216 -214 0
213 -214 0
-213 214 0
217 -218 0
217 -219 0
218 219 -217 0
216 -217 0
-216 217 0
-206 220 0
-209 220 0
-212 220 0
-215 220 0
-218 220 0
220 -221 0
222 0
219 -220 0
-219 220 0
223 -224 0
223 -225 0
224 225 -223 0
226 -223 0
223 -226 0
227 -228 0
227 -229 0
228 229 -227 0
225 -227 0
-225 227 0
230 -231 0
230 -232 0
231 232 -230 0
229 -230 0
-229 230 0
233 -234 0
233 -235 0
234 235 -233 0
232 -233 0
-232 233 0
236 -237 0
236 -238 0
237 238 -236 0
235 -236 0
-235 236 0
239 -240 0
239 -241 0
240 241 -239 0
238 -239 0
-238 239 0
242 -243 0
242 -244 0
243 244 -242 0
241 -242 0
-241 242 0
245 -246 0
245 -247 0
246 247 -245 0
244 -245 0
-244 245 0
248 -249 0
248 -250 0
249 250 -248 0
247 -248 0
-247 248 0
251 -252 0
251 -253 0
252 253 -251 0
250 -251 0
-250 251 0
254 -255 0
254 -256 0
255 256 -254 0
253 -254 0
-253 254 0
257 -258 0
257 -259 0
258 259 -257 0
256 -257 0
-256 257 0
260 -261 0
260 -262 0
261 262 -260 0
259 -260 0
-259 260 0
263 -264 0
263 -265 0
264 265 -263 0
262 -263 0
-262 263 0
-249 266 0
-252 266 0
-255 266 0
-258 266 0
-261 266 0
-264 266 0
266 -267 0
268 0
265 -266 0
-265 266 0
269 -270 0
269 -271 0
270 271 -269 0
272 -269 0
269 -272 0
273 -274 0
273 -275 0
274 275 -273 0
271 -273 0
-271 273 0
276 -277 0
276 -278 0
277 278 -276 0
275 -276 0
-275 276 0
-145 279 0
279 -280 0
145 280 -279 0
278 -279 0
-278 279 0
281 -282 0
281 -283 0
282 283 -281 0
284 -281 0
281 -284 0
285 -286 0
285 -287 0
286 287 -285 0
283 -285 0
-283 285 0
288 -289 0
288 -290 0
289 290 -288 0
287 -288 0
-287 288 0
291 -292 0
291 -293 0
292 293 -291 0
290 -291 0
-290 291 0
294 -295 0
294 -296 0
295 296 -294 0
293 -294 0
-293 294 0
297 -298 0
297 -299 0
298 299 -297 0
296 -297 0
-296 297 0
300 -301 0
300 -302 0
301 302 -300 0
299 -300 0
-299 300 0
303 -304 0
303 -305 0
304 305 -303 0
302 -303 0
-302 303 0
306 -307 0
306 -308 0
307 308 -306 0
305 -306 0
-305 306 0
309 -310 0
309 -311 0
310 311 -309 0
308 -309 0
-308 309 0
312 -313 0
312 -314 0
313 314 -312 0
311 -312 0
-311 312 0
315 -316 0
315 -317 0
316 317 -315 0
314 -315 0
-314 315 0
318 -319 0
318 -320 0
319 320 -318 0
317 -318 0
-317 318 0
-304 321 0
-307 321 0
-310 321 0
-313 321 0
-316 321 0
-319 321 0
321 -322 0
323 0
320 -321 0
-320 321 0
324 -325 0
324 -326 0
325 326 -324 0
327 -324 0
324 -327 0
328 -329 0
328 -330 0
329 330 -328 0
326 -328 0
-326 328 0
331 -332 0
331 -333 0
332 333 -331 0
330 -331 0
-330 331 0
334 -335 0
334 -336 0
335 336 -334 0
333 -334 0
-333 334 0
337 -338 0
337 -339 0
338 339 -337 0
336 -337 0
-336 337 0
340 -341 0
340 -342 0
341 342 -340 0
339 -340 0
-339 340 0
343 -344 0
343 -345 0
344 345 -343 0
342 -343 0
-342 343 0
346 -347 0
346 -348 0
347 348 -346 0
345 -346 0
-345 346 0
349 -350 0
349 -351 0
350 351 -349 0
348 -349 0
-348 349 0
352 -353 0
352 -354 0
353 354 -352 0
351 -352 0
-351 352 0
355 -356 0
355 -357 0
356 357 -355 0
354 -355 0
-354 355 0
-341 358 0
-344 358 0
-347 358 0
-350 358 0
-353 358 0
-356 358 0
358 -359 0
360 0
357 -358 0
-357 358 0
361 -362 0
362 -361 0
4 0
47 0
78 0
115 0
158 0
192 0
226 0
272 0
284 0
327 0
-361 0
